c read Graph
c width = 247
c time = 656 ms
c width = 19
c time = 987 ms
c width = 18
c time = 1099 ms
c width = 17
c time = 1180 ms
c width = 16
c time = 1537 ms
c width = 15
c time = 3014 ms
c width = 15
c time = 4002 ms
s td 224 16 260
b 1 1 2 21
b 2 2 3 21 22
b 3 18 19 39 40
b 4 3 21 22 41
b 5 18 39 40 60
b 6 201 221 222 242
b 7 220 239 240 259
b 8 201 222 242 243
b 9 220 239 258 259
b 10 3 4 5 24
b 11 3 5 23 24 42 61
b 12 5 23 24 42 44 61 63
b 13 5 24 42 44 61 63 82
b 14 5 24 44 61 63 82 101
b 15 5 24 26 44 45 63 82 101
b 16 5 26 44 45 63 65 82 84 101
b 17 5 26 45 63 65 82 84 101 103
b 18 5 26 45 65 82 84 101 103 122
b 19 82 101 102 103 122
b 20 5 26 45 47 65 66 84 101 103 122
b 21 26 45 46 47 66
b 22 5 26 47 65 66 84 87 101 103 107 122 124 126 145
b 23 65 66 84 87 103 105 107 124 126 145
b 24 65 66 84 86 87 105 107 126
b 25 65 84 85 86 105
b 26 86 105 106 107 126
b 27 84 103 104 105 124
b 28 105 124 125 126 145
b 29 5 26 47 66 68 87 101 103 107 122 124 126 145
b 30 5 26 47 68 87 101 103 107 122 124 126 143 145
b 31 103 122 123 124 143
b 32 5 26 47 68 87 101 107 122 124 126 143 145 164
b 33 5 9 26 30 47 49 68 87 101 107 122 126 143 145 164
b 34 5 9 26 28 30 47 49 68
b 35 5 7 9 26 28 47
b 36 7 26 27 28 47
b 37 5 6 7 26
b 38 7 8 9 28
b 39 28 47 48 49 68
b 40 9 28 29 30 49
b 41 9 30 49 68 87 101 107 122 126 143 145 164 185 206 225 246
b 42 9 30 49 68 87 107 126 145 164 166 185 206 225 246
b 43 9 30 49 68 87 107 126 145 166 185 187 206 225 246
b 44 9 30 49 68 87 107 126 145 166 187 206 208 225 229 246 250
b 45 9 30 49 68 87 107 126 145 147 166 187 208 229 250
b 46 126 145 146 147 166
b 47 9 30 49 68 87 107 126 147 166 168 187 208 229 250
b 48 147 166 167 168 187
b 49 9 30 49 68 87 107 126 147 168 187 189 208 229 250
b 50 168 187 188 189 208
b 51 9 30 49 68 87 107 126 147 168 189 208 210 229 250
b 52 189 208 209 210 229
b 53 9 30 49 68 87 107 126 128 147 168 189 210 229 250
b 54 107 126 127 128 147
b 55 9 30 49 68 87 107 128 129 147 150 168 170 189 210 229 250
b 56 128 129 147 150 168 170 189 210 229 250
b 57 128 129 147 149 150 168 170 189
b 58 149 168 169 170 189
b 59 128 147 148 149 168
b 60 9 30 49 68 87 89 107 110 128 129 150 170 189 210 229 250
b 61 9 30 49 68 89 110 129 131 150 170 189 210 229 250
b 62 110 129 131 150 170 189 210 229 250
b 63 110 129 130 131 150
b 64 9 30 49 68 70 89 110 131 150 170 189 210 229 250
b 65 9 30 49 51 70 89 110 131 150 170 189 210 229 250
b 66 30 49 50 51 70
b 67 49 68 69 70 89
b 68 68 87 89 107 108 110 128 129
b 69 89 108 109 110 129
b 70 68 87 88 89 108
b 71 187 206 208 225 227 229 246 250
b 72 206 225 226 227 246
b 73 208 227 229 246 248 250
b 74 208 227 228 229 248
b 75 229 248 249 250
b 76 227 246 247 248
b 77 187 206 207 208 227
b 78 166 185 186 187 206
b 79 145 164 165 166 185
b 80 101 122 143 162 164 181 185 206 225 246
b 81 143 162 164 181 185 204 206 225 246
b 82 185 204 205 206 225
b 83 143 162 164 181 183 185 204 225 246
b 84 162 181 183 204 225 244 246
b 85 225 244 245 246
b 86 162 181 183 204 223 225 244
b 87 204 223 224 225 244
b 88 162 181 183 202 204 223 244
b 89 181 202 223 243 244
b 90 181 201 202 223 243
b 91 201 202 222 223 243
b 92 162 181 182 183 202
b 93 183 202 203 204 223
b 94 164 183 184 185 204
b 95 143 162 163 164 183
b 96 101 122 141 143 162 181
b 97 141 161 162 181
b 98 101 121 122 141
b 99 122 141 142 143 162
b 100 124 143 144 145 164
b 101 47 66 67 68 87
b 102 63 82 83 84 103
b 103 44 63 64 65 84
b 104 5 24 25 26 45
b 105 61 81 82 101
b 106 42 61 62 63 82
b 107 23 42 43 44 63
b 108 3 23 41 42 61
b 109 3 22 23 41 42
b 110 70 89 90 91 110
b 111 170 189 190 191 210
b 112 91 110 111 112 131
b 113 93 112 113 114 133
b 114 112 131 132 133 152
b 115 114 133 134 135 154
b 116 133 152 153 154 173
b 117 152 171 172 173 192
b 118 9 30 51 70 89 91 110 131 150 170 189 210 229 250
b 119 9 30 51 70 72 91 110 131 150 170 189 210 229 250
b 120 9 30 51 72 91 110 112 131 150 170 189 210 229 250
b 121 9 30 51 72 91 93 112 131 150 170 189 210 229 250
b 122 9 30 51 72 93 112 131 150 170 189 191 210 229 250
b 123 9 30 51 72 93 112 131 150 170 171 191 210 229 250
b 124 9 30 51 72 93 112 131 150 152 171 191 210 229 250
b 125 9 30 51 72 93 112 131 133 152 171 191 210 229 250
b 126 9 30 51 72 93 112 114 133 152 171 191 210 229 250
b 127 9 30 51 72 93 114 133 152 171 191 210 229 231 250
b 128 9 30 51 72 93 114 133 152 171 191 210 212 231 250
b 129 9 30 51 72 93 114 133 152 171 191 192 212 231 250
b 130 9 30 51 72 93 114 133 152 171 173 192 212 231 250
b 131 9 30 51 72 93 114 133 152 154 173 192 212 231 250
b 132 9 30 51 72 93 114 133 135 154 173 192 212 231 250
b 133 9 30 51 72 93 114 135 154 156 173 177 194 196 215 234 254
b 134 9 30 51 72 93 114 135 154 173 194 213 215 234 254
b 135 9 30 51 72 93 114 135 154 173 192 194 213 234 254
b 136 9 30 51 72 93 114 135 154 173 192 212 213 231 234 250 254
b 137 51 70 71 72 91
b 138 72 91 92 93 112
b 139 131 150 151 152 171
b 140 191 210 211 212 231
b 141 212 213 231 233 234 250 254
b 142 212 231 233 250 252 254
b 143 233 252 253 254
b 144 231 250 251 252
b 145 212 231 232 233 252
b 146 210 229 230 231 250
b 147 135 154 156 173 175 177 194 196 215
b 148 135 154 155 156 175
b 149 154 173 174 175 194
b 150 156 175 176 177 196
b 151 175 194 195 196 215
b 152 9 30 51 72 93 114 135 156 177 196 200 215 234 254
b 153 9 30 51 72 93 114 135 156 158 177 179 196 200 215 234 254
b 154 9 13 30 34 51 55 72 74 93 114 135 156 158 177 179 200
b 155 9 13 30 34 51 53 55 72 74 93
b 156 53 72 73 74 93
b 157 9 13 30 32 34 51 53 72
b 158 9 11 13 30 32 51
b 159 9 10 11 30
b 160 11 30 31 32 51
b 161 11 12 13 32
b 162 13 32 33 34 53
b 163 32 51 52 53 72
b 164 34 53 54 55 74
b 165 13 34 55 74 93 114 135 137 156 158 177 179 200
b 166 13 34 55 74 76 93 97 114 118 135 137 156 158 179 200
b 167 13 34 55 76 97 99 118 120 137 158 179 200
b 168 99 118 120 137 139 158 179 200
b 169 120 139 158 160 179 200
b 170 139 158 159 160 179
b 171 160 179 180 200
b 172 120 139 140 160
b 173 118 137 138 139 158
b 174 99 118 119 120 139
b 175 13 17 34 36 55 76 97 99 118 120
b 176 13 15 17 34 36 55
b 177 15 34 35 36 55
b 178 13 14 15 34
b 179 15 16 17 36
b 180 17 36 55 76 78 97 99 118 120
b 181 78 97 98 99 118
b 182 17 36 55 57 76 78 97 99 120
b 183 57 76 77 78 97
b 184 17 36 57 78 80 99 120
b 185 80 99 100 120
b 186 17 36 57 59 78 80 99
b 187 17 36 38 57 59 78 80
b 188 17 36 37 38 57
b 189 38 57 58 59 78
b 190 17 38 59 60 80
b 191 17 18 38 59 60
b 192 18 38 39 59 60
b 193 59 78 79 80 99
b 194 36 55 56 57 76
b 195 55 74 76 93 97 114 116 118 135 137 156
b 196 97 116 117 118 137
b 197 55 74 76 93 95 97 114 116 135
b 198 95 114 115 116 135
b 199 74 93 94 95 114
b 200 55 74 75 76 95
b 201 76 95 96 97 116
b 202 116 135 136 137 156
b 203 137 156 157 158 177
b 204 158 177 179 196 200 215 234 236 254 256
b 205 215 234 235 236 254 256
b 206 235 254 255 256
b 207 158 177 179 196 200 215 217 236 256
b 208 196 215 216 217 236
b 209 158 177 179 196 198 200 217 236 256
b 210 179 198 200 217 236 238 256 258
b 211 217 236 237 238 256 258
b 212 237 256 257 258
b 213 179 198 200 217 219 238 258
b 214 198 217 218 219 238
b 215 200 219 220 238 258
b 216 219 220 238 239 258
b 217 179 198 199 200 219
b 218 158 177 178 179 198
b 219 177 196 197 198 217
b 220 194 213 214 215 234
b 221 173 192 193 194 213
b 222 240 259 260
b 223 221 241 242
b 224 19 20 40
1 2
2 4
3 224
3 5
4 109
5 192
6 223
6 8
7 222
7 9
8 91
9 216
10 11
11 108
11 12
12 107
12 13
13 106
13 14
14 105
14 15
15 104
15 16
16 103
16 17
17 102
17 18
18 20
18 19
20 22
20 21
22 29
22 23
23 27
23 28
23 24
24 25
24 26
29 101
29 30
30 32
30 31
32 100
32 33
33 41
33 34
34 40
34 35
34 39
35 38
35 36
35 37
41 80
41 42
42 79
42 43
43 78
43 44
44 45
44 71
45 47
45 46
47 48
47 49
49 51
49 50
51 53
51 52
53 55
53 54
55 60
55 57
55 56
57 59
57 58
60 68
60 61
61 64
61 63
61 62
64 67
64 65
65 118
65 66
68 70
68 69
71 77
71 73
71 72
73 76
73 75
73 74
80 96
80 81
81 82
81 83
83 84
83 94
83 95
84 85
84 86
86 88
86 87
88 89
88 92
88 93
89 90
90 91
96 98
96 99
96 97
108 109
110 118
111 122
112 120
113 126
114 125
115 132
116 131
117 130
118 119
119 137
119 120
120 121
121 138
121 122
122 123
123 124
124 139
124 125
125 126
126 127
127 146
127 128
128 140
128 129
129 130
130 131
131 132
132 136
133 152
133 147
133 134
134 220
134 135
135 221
135 136
136 141
141 142
142 143
142 144
142 145
147 148
147 149
147 150
147 151
152 153
153 154
153 204
154 155
154 165
155 164
155 156
155 157
157 162
157 163
157 158
158 159
158 161
158 160
165 203
165 166
166 195
166 167
167 168
167 175
168 174
168 173
168 169
169 172
169 171
169 170
175 176
175 180
176 178
176 179
176 177
180 181
180 182
182 194
182 183
182 184
184 185
184 186
186 193
186 187
187 190
187 188
187 189
190 191
191 192
195 196
195 202
195 197
197 200
197 199
197 201
197 198
204 205
204 207
205 206
207 208
207 209
209 218
209 219
209 210
210 211
210 213
211 212
213 215
213 217
213 214
215 216
